p cnf 30 27
1 2 0
-1 3 0
4 5 0
-4 6 0
7 8 4 1 9 0
7 8 4 -1 12 0
7 8 -4 1 10 0
7 8 -4 -1 13 0
7 -8 4 1 11 0
7 -8 4 -1 14 0
7 -8 -4 1 15 0
7 -8 -4 -1 9 0
-7 8 4 1 9 0
-7 8 4 -1 16 0
-7 8 -4 1 18 0
-7 8 -4 -1 17 0
-7 -8 0
19 4 20 0
19 -4 22 0
-19 4 23 0
-19 -4 21 0
24 7 8 25 0
24 7 -8 26 0
24 -7 8 28 0
-24 7 8 29 0
-24 7 -8 27 0
-24 -7 8 30 0
